treewidth/data/KneserGraph_10_2.gr
p tw 45 630
1 2
1 13
1 24
1 41
1 42
1 44
1 45
1 4
1 6
1 7
1 8
1 12
1 16
1 18
1 21
1 23
1 25
1 26
1 27
1 30
1 31
1 32
1 33
1 34
1 36
1 37
1 38
1 39
2 24
2 35
2 41
2 42
2 43
2 3
2 5
2 6
2 7
2 8
2 9
2 11
2 12
2 14
2 15
2 16
2 17
2 18
2 20
2 22
2 23
2 26
2 28
2 32
2 34
2 36
2 37
13 24
13 35
13 45
13 3
13 5
13 7
13 8
13 9
13 10
13 11
13 15
13 16
13 17
13 18
13 19
13 20
13 21
13 22
13 23
13 26
13 27
13 28
13 30
13 31
13 32
13 34
13 37
24 42
24 43
24 44
24 45
24 3
24 4
24 5
24 6
24 10
24 14
24 16
24 17
24 18
24 19
24 20
24 21
24 22
24 23
24 27
24 28
24 29
24 36
24 38
24 39
24 40
35 41
35 42
35 44
35 45
35 4
35 5
35 6
35 7
35 8
35 9
35 14
35 16
35 17
35 18
35 19
35 21
35 22
35 23
35 25
35 27
35 30
35 32
35 36
35 38
35 39
35 40
41 44
41 45
41 3
41 4
41 5
41 10
41 15
41 16
41 17
41 18
41 19
41 20
41 21
41 22
41 23
41 26
41 27
41 28
41 29
41 31
41 33
41 34
41 37
41 39
41 40
42 45
42 3
42 4
42 7
42 9
42 10
42 11
42 15
42 17
42 18
42 19
42 20
42 21
42 22
42 25
42 29
42 30
42 31
42 32
42 33
42 34
42 37
42 39
42 40
43 44
43 45
43 4
43 5
43 7
43 8
43 9
43 15
43 16
43 17
43 18
43 19
43 21
43 22
43 23
43 25
43 26
43 27
43 30
43 31
43 32
43 33
43 34
43 37
43 39
43 40
44 45
44 3
44 6
44 7
44 9
44 10
44 11
44 12
44 14
44 15
44 17
44 18
44 19
44 20
44 21
44 22
44 30
44 31
44 32
44 34
44 36
44 37
44 38
45 5
45 6
45 7
45 8
45 9
45 11
45 12
45 14
45 15
45 20
45 22
45 23
45 25
45 26
45 28
45 29
45 33
45 37
45 39
45 40
3 5
3 6
3 7
3 8
3 9
3 12
3 14
3 15
3 19
3 21
3 22
3 23
3 25
3 26
3 27
3 30
3 31
3 33
3 37
3 38
3 39
3 40
4 5
4 6
4 7
4 8
4 9
4 10
4 11
4 12
4 14
4 15
4 19
4 20
4 21
4 22
4 23
4 26
4 27
4 28
4 30
4 31
4 37
4 38
5 6
5 7
5 10
5 11
5 12
5 18
5 20
5 21
5 25
5 29
5 30
5 31
5 32
5 33
5 34
5 36
5 37
5 38
5 39
6 8
6 9
6 10
6 11
6 15
6 16
6 17
6 19
6 25
6 26
6 27
6 28
6 29
6 30
6 31
6 32
6 33
6 34
6 40
7 10
7 12
7 14
7 15
7 16
7 17
7 19
7 26
7 27
7 28
7 29
7 31
7 33
7 34
7 36
7 38
7 40
8 10
8 12
8 14
8 15
8 17
8 18
8 19
8 20
8 21
8 22
8 29
8 31
8 33
8 34
8 36
8 37
8 38
8 39
8 40
9 10
9 12
9 16
9 18
9 20
9 21
9 23
9 26
9 27
9 28
9 29
9 31
9 33
9 34
9 36
9 37
9 38
9 39
10 12
10 14
10 15
10 16
10 17
10 18
10 22
10 23
10 25
10 26
10 32
10 33
10 34
10 36
10 37
10 39
10 40
11 12
11 14
11 15
11 16
11 17
11 18
11 19
11 21
11 22
11 23
11 26
11 27
11 31
11 33
11 34
11 36
11 37
11 38
11 39
11 40
12 16
12 17
12 18
12 19
12 20
12 21
12 22
12 23
12 25
12 27
12 28
12 29
12 30
12 32
12 39
12 40
14 16
14 18
14 20
14 21
14 23
14 25
14 26
14 27
14 28
14 29
14 30
14 31
14 32
14 33
14 34
14 37
14 39
15 16
15 18
15 20
15 21
15 23
15 25
15 27
15 28
15 29
15 30
15 32
15 36
15 38
15 39
16 19
16 20
16 21
16 22
16 25
16 29
16 30
16 31
16 33
16 37
16 38
16 39
16 40
17 20
17 21
17 23
17 25
17 26
17 27
17 28
17 29
17 30
17 31
17 33
17 37
17 38
17 39
18 19
18 25
18 26
18 27
18 28
18 29
18 30
18 31
18 33
18 38
18 40
19 20
19 23
19 25
19 26
19 28
19 29
19 32
19 33
19 34
19 36
19 37
19 39
20 25
20 26
20 27
20 30
20 31
20 32
20 33
20 34
20 36
20 38
20 40
21 25
21 26
21 28
21 29
21 32
21 33
21 34
21 36
21 40
22 25
22 26
22 27
22 28
22 29
22 30
22 31
22 32
22 33
22 34
22 36
22 38
23 25
23 29
23 30
23 31
23 32
23 33
23 34
23 36
23 38
23 40
25 26
25 27
25 28
25 31
25 34
25 36
25 37
25 38
26 29
26 30
26 32
26 36
26 38
26 39
26 40
27 29
27 32
27 33
27 34
27 36
27 37
27 39
27 40
28 30
28 31
28 32
28 33
28 34
28 36
28 37
28 38
28 39
28 40
29 30
29 31
29 32
29 34
29 36
29 37
29 38
30 33
30 34
30 36
30 37
30 39
30 40
31 32
31 36
31 39
31 40
32 33
32 37
32 38
32 39
32 40
33 36
33 38
34 38
34 39
34 40
36 37
36 39
36 40
37 38
37 40
38 39
38 40
