treewidth/data/KneserGraph_10_2.td
c width = 35, time = 0.777065
s td 10 36 45
b 1 3 6 7 8 10 11 12 16 18 20 21 23 24 26 27 28 30 31 32 34 35 36 37 38 40 41 42 43 45
b 2 2 3 4 6 7 8 10 11 12 13 16 18 20 21 22 23 24 25 26 27 28 29 30 31 32 33 34 35 36 37 38 41 42 43 44 45
b 3 2 3 4 6 7 8 10 11 12 13 16 18 20 21 23 24 25 26 27 28 29 30 31 32 33 34 35 36 37 38 39 41 42 43 44 45
b 4 1 2 4 6 7 8 12 13 16 18 21 23 24 25 26 27 30 31 32 33 34 36 37 38 39 41 42 44 45
b 5 2 3 4 5 6 7 10 11 12 13 18 20 21 24 25 29 30 31 32 33 34 35 36 37 38 39 41 43 45
b 6 2 3 4 6 9 10 12 13 16 18 20 21 23 26 27 28 29 31 33 34 35 36 37 38 39 42 43 44 45
b 7 2 3 4 7 8 10 11 14 16 18 20 21 23 24 25 26 27 28 29 30 31 32 33 34 35 37 39 44 45
b 8 2 3 4 6 7 8 10 11 13 15 16 18 20 21 23 25 27 28 29 30 32 36 38 39 41 42 43 44 45
b 9 2 6 7 8 10 11 12 13 17 20 21 23 24 25 26 27 28 29 30 31 33 35 37 38 39 41 42 43 44
b 10 3 4 6 7 8 11 12 13 16 18 19 20 23 24 25 26 28 29 32 33 34 35 36 37 39 41 42 43 44
3 4
3 5
3 6
3 7
3 8
3 9
3 10
2 3
1 2
